\ Model QCP
\ LP format - for model browsing. Use MPS format to capture full model detail.
Minimize
  z + y
Subject To
 Cut_0: z + [ ] >= 1020
 Cut_1: z + [ 5 y ^2 ] >= 2120
 Cut_2: z + [ 4.918032786885243 y ^2 ] >= 2106.885245901639
 Cut_3: z + [ ] >= 1020
 Cut_4: z + [ ] >= 1020
 Cut_5: z + [ ] >= 1020
 Cut_6: z + [ ] >= 1020
 Cut_7: z + [ ] >= 1020
 Cut_8: z + [ ] >= 1020
 Cut_9: z + [ ] >= 1020
Bounds
 1020 <= z <= 1320
 12.64911064067352 <= y <= 14.86606874731851
End
